NAME          REFINERY_OPT
ROWS
 N  COST
 L  SULFUR_LIMIT
 L  CAPACITY_LIMIT
 G  DEMAND_LIMIT
COLUMNS
    CRUDE_A   COST        45.0
    CRUDE_A   SULFUR_LIMIT  1.2
    CRUDE_A   CAPACITY_LIMIT 1.0
    CRUDE_A   DEMAND_LIMIT  1.0
    CRUDE_B   COST        60.0
    CRUDE_B   SULFUR_LIMIT  0.8
    CRUDE_B   CAPACITY_LIMIT 1.0
    CRUDE_B   DEMAND_LIMIT  1.0
RHS
    RHS1      SULFUR_LIMIT  7000.0
    RHS1      CAPACITY_LIMIT 6000.0
    RHS1      DEMAND_LIMIT   4000.0
BOUNDS
 LO BND1      CRUDE_A     0.0
 UP BND1      CRUDE_A     5000.0
 LO BND1      CRUDE_B     0.0
 UP BND1      CRUDE_B     3000.0
ENDATA